{"lblp_lower": [1615.2164710589998, 1631.1500000000003, 1632.3250133333338, 1633.9980225000004], "cuttingPlaneBendInfo": [{"tot_cut_value": 0, "TOT_gen_cut": 0, "tot_time_opt": 0, "max_time_opt": 0}, {"tot_cut_value": 0.9460000000000001, "TOT_gen_cut": 1, "tot_time_opt": 0.2644186019897461, "max_time_opt": 0.01164388656616211}, {"tot_cut_value": 0.7396999999999994, "TOT_gen_cut": 1, "tot_time_opt": 0.2140038013458252, "max_time_opt": 0.007400035858154297}, {"tot_cut_value": 0, "TOT_gen_cut": 0, "tot_time_opt": 0.19319629669189453, "max_time_opt": 0.008237123489379883}], "time_compress": [0, 0, 0, 0], "ub_lp": [1648.0999999999997, 1631.1499999999996, 1632.3250133333333, 1633.9980225], "prob_sizes_at_start": [{"timeGraph": 102, "ngGraph": 102}, {"timeGraph": 116, "ngGraph": 142}, {"timeGraph": 109, "ngGraph": 102}, {"timeGraph": 107, "ngGraph": 102}], "prob_sizes_after_compress": [{"timeGraph": 3, "ngGraph": 95}, {"timeGraph": 15, "ngGraph": 89}, {"timeGraph": 14, "ngGraph": 79}, {"timeGraph": 15, "ngGraph": 71}], "prob_sizes_after_split": [{"timeGraph": 116, "ngGraph": 142}, {"timeGraph": 109, "ngGraph": 102}, {"timeGraph": 107, "ngGraph": 102}, {"timeGraph": 107, "ngGraph": 102}], "did_compress": [true, true, true, true], "lp_time_project": [0.568458080291748, 0.12228727340698242, 0.12006807327270508, 0.11844372749328613], "lp_time_LB": [0.08992600440979004, 0.04112410545349121, 0.01407003402709961, 0.012956857681274414], "ilp_time": [], "history_of_graphs_by_iter": [], "ROOT_LP_PRIOR_ADDING_CUTS": 1631.1500000000003, "OUR_ilp_objective": 1637.7000000000005, "OUR_MIP_Lower_Bound": 1637.6999999999996, "OUR_ilp_time": 0.023517847061157227, "OUR_gurobi_MILP_str": "Gurobi Optimizer version 12.0.1 build v12.0.1rc0 (mac64[arm] - Darwin 24.5.0 24F74)\n\nCPU model: Apple M1\nThread count: 8 physical cores, 8 logical processors, using up to 8 threads\n\nNon-default parameters:\nTimeLimit  3000\n\nWLS license 2690165 - registered to Optym\nOptimize a model with 13798 rows, 4896 columns and 47194 nonzeros\nModel fingerprint: 0xbf7883b8\nVariable types: 202 continuous, 4694 integer (3865 binary)\nCoefficient statistics:\n  Matrix range     [1e-01, 1e+02]\n  Objective range  [1e+00, 8e+01]\n  Bounds range     [1e-01, 2e+02]\n  RHS range        [1e+00, 2e+02]\nUsing branch priorities.\nPresolve removed 13771 rows and 4854 columns\nPresolve time: 0.02s\nPresolved: 27 rows, 42 columns, 109 nonzeros\nVariable types: 0 continuous, 42 integer (42 binary)\nFound heuristic solution: objective 1648.4000000\n\nRoot relaxation: objective 1.637700e+03, 26 iterations, 0.00 seconds (0.00 work units)\n\n    Nodes    |    Current Node    |     Objective Bounds      |     Work\n Expl Unexpl |  Obj  Depth IntInf | Incumbent    BestBd   Gap | It/Node Time\n\n*    0     0               0    1637.7000000 1637.70000  0.00%     -    0s\n\nExplored 1 nodes (26 simplex iterations) in 0.02 seconds (0.03 work units)\nThread count was 8 (of 8 available processors)\n\nSolution count 2: 1637.7 1648.4 \n\nOptimal solution found (tolerance 1.00e-04)\nBest objective 1.637700000000e+03, best bound 1.637700000000e+03, gap 0.0000%\n", "jy_opt": {"ParetoEps": 1e-05, "turn_off_time_windows": false, "deactivate_time_graph": false, "deactivate_demand_graph": false, "epsilon": 0.0001, "weight_slack_projector": 1e-05, "weight_compress": 0.01, "num_cust_use": 100, "dem_step_sz": 1, "time_step_sz": 1, "use_compression": 1, "max_iterations_loop_compress_project": 50, "do_round_dist_times": 1, "my_shift_bet_time_win": 0.0001, "num_terms_per_bin_init_construct": 100, "allOneBig_init": 0, "min_inc_2_compress": 1e-05, "save_graph_each_iter": 0, "use_Xpress": 0, "use_ineq": 1, "xpress_file_loc": "/Users/julian/Documents/FICO_Xpress_Config/xpauth.xpr", "run_baseline": 0, "verbose": 0, "use_NG_graph": 1, "num_NG": 9, "in_demo_mode": 0, "threshold_split": 0.1, "offset_cost_edge_project": 0, "use_classic_compress": 1, "use_classic_compress_last": 1, "num_thresh_split_projector": 1000, "lplb_solver": 4, "compresss_solver": 0, "proj_solver": 4, "use_julians_custom_lp_solver": 0, "do_ilp": 1, "roundingDiscretization_num_digits_keep": 3, "doExrtraRemovalEdgesLB": 0, "use_gurobi": 1, "max_ILP_time": 3000, "use_fancy_ng_graph": 1, "use_dem_graph": 0, "use_time_graph": 1, "num_multiplys_demand": 0, "DEBUG_ALLOW_DUMB_EDGES": 0, "add_all_ng_split_at_end": 0, "do_split_based_init": 0, "think_compress": [0], "use_delta_in_milp": 1, "use_delta_in_lp": 1, "turn_off_non_active_fg_project": 0, "use_new_valid_ineq": 0, "digit_mult_use": 10, "use_branch_on_g": true, "LAB_MP_ON": 0, "LAB_MP_neigh_use_power": 9, "LAB_MP_num_ineq_use": 10, "do_remove_actions_from_incumbant": true, "ub_use_remove": 1637.7, "use_packing_in_construction": 1, "maxVarsAdd_in_ITER": 10, "use_ng_size_init": 0, "do_presolve": 0, "use_diving_ineq": 1, "BEND_MIN_LP_OBJECTIVE_CUT": 0.1, "BEND_USE_RAND": 0, "BEND_MAX_SIZE_CHOOSE_K": 230, "BEND_VAL_STOP_ADDING_CUTS": 100000000, "BEND_MY_SIZES_USE": [9], "NUMERICAL_BEND_OFFSET_COST_CUT": 0.0001, "NUMERICAL_BEND_EPSILON_MULT_PARETO_OBJ": 0.001, "NO_PARETO_NUMERICAL_BEND_OFFSET_COST_CUT": 0, "NO_PARETO_BEND_VAL_STOP_ADDING_CUTS": 1, "NO_PARETO_EPSILON_MAX_VAL_CON": 0.01, "BENDERS_NEIGH_SZ_USE": 9, "Actions_of_given_sol": [], "all_vars_binary": 1, "restore_after_each_step": 1, "use_ng": 1, "compress_solver": 1, "DEBUG_NG_turn_off_CLEAN": false, "max_nodes_split": Infinity}, "output_ilp_solution": {"delta_capRem_0": 1.0, "delta_timeRem_0": 59.0, "delta_capRem_1": 20.0, "delta_timeRem_1": 180.0, "delta_capRem_2": 12.9, "delta_timeRem_2": 114.0, "delta_capRem_3": 3.7, "delta_timeRem_3": 71.0, "delta_capRem_4": 20.0, "delta_timeRem_4": 196.0, "delta_capRem_5": 2.9, "delta_timeRem_5": 121.0, "delta_capRem_6": 4.9, "delta_timeRem_6": 139.0, "delta_capRem_7": 3.4, "delta_timeRem_7": 125.0, "delta_capRem_8": 5.3, "delta_timeRem_8": 123.0, "delta_capRem_9": 4.4, "delta_timeRem_9": 106.0, "delta_capRem_10": 18.1, "delta_timeRem_10": 153.0, "delta_capRem_11": 20.0, "delta_timeRem_11": 167.0, "delta_capRem_12": 2.3, "delta_timeRem_12": 61.0, "delta_capRem_13": 20.0, "delta_timeRem_13": 198.0, "delta_capRem_14": 16.7, "delta_timeRem_14": 169.0, "delta_capRem_15": 13.5, "delta_timeRem_15": 145.0, "delta_capRem_16": 0.2, "delta_timeRem_16": 63.0, "delta_capRem_17": 4.5, "delta_timeRem_17": 143.0, "delta_capRem_18": 16.8, "delta_timeRem_18": 152.7, "delta_capRem_19": 3.7, "delta_timeRem_19": 99.7, "delta_capRem_20": 19.3, "delta_timeRem_20": 159.6, "delta_capRem_21": 6.1, "delta_timeRem_21": 123.0, "delta_capRem_22": 16.9, "delta_timeRem_22": 162.0, "delta_capRem_23": 0.9, "delta_timeRem_23": 67.0, "delta_capRem_24": 0.6, "delta_timeRem_24": 48.0, "delta_capRem_25": 1.7, "delta_timeRem_25": 88.0, "delta_capRem_26": 20.0, "delta_timeRem_26": 193.0, "delta_capRem_27": 20.0, "delta_timeRem_27": 191.0, "delta_capRem_28": 4.8, "delta_timeRem_28": 157.0, "delta_capRem_29": 15.7, "delta_timeRem_29": 151.2, "delta_capRem_30": 20.0, "delta_timeRem_30": 180.0, "delta_capRem_31": 2.8, "delta_timeRem_31": 79.0, "delta_capRem_32": 20.0, "delta_timeRem_32": 193.0, "delta_capRem_33": 3.6, "delta_timeRem_33": 103.0, "delta_capRem_34": 2.2, "delta_timeRem_34": 77.0, "delta_capRem_35": 20.0, "delta_timeRem_35": 188.6, "delta_capRem_36": 3.1, "delta_timeRem_36": 96.0, "delta_capRem_37": 16.2, "delta_timeRem_37": 137.0, "delta_capRem_38": 20.0, "delta_timeRem_38": 186.0, "delta_capRem_39": 18.2, "delta_timeRem_39": 142.6, "delta_capRem_40": 4.8, "delta_timeRem_40": 123.6, "delta_capRem_41": 17.2, "delta_timeRem_41": 189.0, "delta_capRem_42": 14.6, "delta_timeRem_42": 94.0, "delta_capRem_43": 18.0, "delta_timeRem_43": 161.0, "delta_capRem_44": 20.0, "delta_timeRem_44": 198.0, "delta_capRem_45": 2.5, "delta_timeRem_45": 103.0, "delta_capRem_46": 19.5, "delta_timeRem_46": 171.4, "delta_capRem_47": 3.6, "delta_timeRem_47": 55.0, "delta_capRem_48": 6.6, "delta_timeRem_48": 112.0, "delta_capRem_49": 5.8, "delta_timeRem_49": 105.4, "delta_capRem_50": 6.3, "delta_timeRem_50": 132.0, "delta_capRem_51": 20.0, "delta_timeRem_51": 178.0, "delta_capRem_52": 3.1, "delta_timeRem_52": 125.0, "delta_capRem_53": 2.7, "delta_timeRem_53": 87.0, "delta_capRem_54": 11.5, "delta_timeRem_54": 94.0, "delta_capRem_55": 4.3, "delta_timeRem_55": 100.0, "delta_capRem_56": 6.0, "delta_timeRem_56": 119.8, "delta_capRem_57": 1.8, "delta_timeRem_57": 20.0, "delta_capRem_58": 20.0, "delta_timeRem_58": 212.0, "delta_capRem_59": 1.8, "delta_timeRem_59": 68.0, "delta_capRem_60": 13.5, "delta_timeRem_60": 144.0, "delta_capRem_61": 20.0, "delta_timeRem_61": 172.0, "delta_capRem_62": 20.0, "delta_timeRem_62": 195.1, "delta_capRem_63": 7.5, "delta_timeRem_63": 147.0, "delta_capRem_64": 20.0, "delta_timeRem_64": 179.0, "delta_capRem_65": 3.5, "delta_timeRem_65": 94.2, "delta_capRem_66": 14.0, "delta_timeRem_66": 137.0, "delta_capRem_67": 4.5, "delta_timeRem_67": 78.0, "delta_capRem_68": 18.4, "delta_timeRem_68": 175.8, "delta_capRem_69": 0.5, "delta_timeRem_69": 38.0, "delta_capRem_70": 18.0, "delta_timeRem_70": 153.0, "delta_capRem_71": 20.0, "delta_timeRem_71": 195.0, "delta_capRem_72": 15.7, "delta_timeRem_72": 143.7, "delta_capRem_73": 2.6, "delta_timeRem_73": 71.0, "delta_capRem_74": 17.5, "delta_timeRem_74": 161.0, "delta_capRem_75": 16.5, "delta_timeRem_75": 150.0, "delta_capRem_76": 1.4, "delta_timeRem_76": 41.0, "delta_capRem_77": 3.9, "delta_timeRem_77": 134.0, "delta_capRem_78": 15.2, "delta_timeRem_78": 128.0, "delta_capRem_79": 0.6, "delta_timeRem_79": 38.0, "delta_capRem_80": 8.4, "delta_timeRem_80": 126.0, "delta_capRem_81": 13.5, "delta_timeRem_81": 165.0, "delta_capRem_82": 14.6, "delta_timeRem_82": 176.0, "delta_capRem_83": 3.3, "delta_timeRem_83": 119.0, "delta_capRem_84": 7.6, "delta_timeRem_84": 129.0, "delta_capRem_85": 11.6, "delta_timeRem_85": 126.0, "delta_capRem_86": 8.6, "delta_timeRem_86": 137.0, "delta_capRem_87": 7.1, "delta_timeRem_87": 155.3, "delta_capRem_88": 1.5, "delta_timeRem_88": 44.0, "delta_capRem_89": 4.7, "delta_timeRem_89": 125.0, "delta_capRem_90": 1.8, "delta_timeRem_90": 60.0, "delta_capRem_91": 20.0, "delta_timeRem_91": 211.7, "delta_capRem_92": 2.2, "delta_timeRem_92": 32.0, "delta_capRem_93": 6.2, "delta_timeRem_93": 120.0, "delta_capRem_94": 20.0, "delta_timeRem_94": 191.0, "delta_capRem_95": 1.1, "delta_timeRem_95": 85.0, "delta_capRem_96": 1.2, "delta_timeRem_96": 87.0, "delta_capRem_97": 15.2, "delta_timeRem_97": 171.3, "delta_capRem_98": 8.5, "delta_timeRem_98": 144.6, "delta_capRem_99": 1.7, "delta_timeRem_99": 35.0, "act_0_101": 1, "act_1_20": 1, "act_2_53": 1, "act_3_101": 1, "act_4_82": 1, "act_5_101": 1, "act_6_101": 1, "act_7_45": 1, "act_8_65": 1, "act_9_101": 1, "act_10_89": 1, "act_11_75": 1, "act_12_101": 1, "act_13_43": 1, "act_14_86": 1, "act_15_85": 1, "act_16_101": 1, "act_17_83": 1, "act_18_7": 1, "act_19_31": 1, "act_20_72": 1, "act_21_73": 1, "act_22_66": 1, "act_23_79": 1, "act_24_101": 1, "act_25_101": 1, "act_26_68": 1, "act_27_28": 1, "act_28_77": 1, "act_29_50": 1, "act_30_87": 1, "act_31_69": 1, "act_32_80": 1, "act_33_34": 1, "act_34_76": 1, "act_35_46": 1, "act_36_92": 1, "act_37_42": 1, "act_38_22": 1, "act_39_52": 1, "act_40_55": 1, "act_41_14": 1, "act_42_12": 1, "act_43_37": 1, "act_44_81": 1, "act_45_16": 1, "act_46_18": 1, "act_47_101": 1, "act_48_47": 1, "act_49_67": 1, "act_50_19": 1, "act_51_5": 1, "act_52_25": 1, "act_53_23": 1, "act_54_24": 1, "act_55_3": 1, "act_56_96": 1, "act_57_101": 1, "act_58_98": 1, "act_59_88": 1, "act_60_84": 1, "act_61_10": 1, "act_62_63": 1, "act_63_48": 1, "act_64_70": 1, "act_65_0": 1, "act_66_54": 1, "act_67_101": 1, "act_68_29": 1, "act_69_101": 1, "act_70_8": 1, "act_71_74": 1, "act_72_40": 1, "act_73_57": 1, "act_74_21": 1, "act_75_78": 1, "act_76_101": 1, "act_77_33": 1, "act_78_2": 1, "act_79_101": 1, "act_80_49": 1, "act_81_17": 1, "act_82_60": 1, "act_83_59": 1, "act_84_36": 1, "act_85_90": 1, "act_86_56": 1, "act_87_6": 1, "act_88_101": 1, "act_89_9": 1, "act_90_99": 1, "act_91_41": 1, "act_92_101": 1, "act_93_95": 1, "act_94_97": 1, "act_95_101": 1, "act_96_101": 1, "act_97_15": 1, "act_98_93": 1, "act_99_101": 1, "act_100_1": 1, "act_100_4": 1, "act_100_11": 1, "act_100_13": 1, "act_100_26": 1, "act_100_27": 1, "act_100_30": 1, "act_100_32": 1, "act_100_35": 1, "act_100_38": 1, "act_100_39": 1, "act_100_44": 1, "act_100_51": 1, "act_100_58": 1, "act_100_61": 1, "act_100_62": 1, "act_100_64": 1, "act_100_71": 1, "act_100_91": 1, "act_100_94": 1}, "Actions_of_given_sol": "none just used source and sink terms", "actions_used": ["act_0_101", "act_1_20", "act_2_53", "act_3_101", "act_4_82", "act_5_101", "act_6_101", "act_7_45", "act_8_65", "act_9_101", "act_10_89", "act_11_75", "act_12_101", "act_13_43", "act_14_86", "act_15_85", "act_16_101", "act_17_83", "act_18_7", "act_19_31", "act_20_72", "act_21_73", "act_22_66", "act_23_79", "act_24_101", "act_25_101", "act_26_68", "act_27_28", "act_28_77", "act_29_50", "act_30_87", "act_31_69", "act_32_80", "act_33_34", "act_34_76", "act_35_46", "act_36_92", "act_37_42", "act_38_22", "act_39_52", "act_40_55", "act_41_14", "act_42_12", "act_43_37", "act_44_81", "act_45_16", "act_46_18", "act_47_101", "act_48_47", "act_49_67", "act_50_19", "act_51_5", "act_52_25", "act_53_23", "act_54_24", "act_55_3", "act_56_96", "act_57_101", "act_58_98", "act_59_88", "act_60_84", "act_61_10", "act_62_63", "act_63_48", "act_64_70", "act_65_0", "act_66_54", "act_67_101", "act_68_29", "act_69_101", "act_70_8", "act_71_74", "act_72_40", "act_73_57", "act_74_21", "act_75_78", "act_76_101", "act_77_33", "act_78_2", "act_79_101", "act_80_49", "act_81_17", "act_82_60", "act_83_59", "act_84_36", "act_85_90", "act_86_56", "act_87_6", "act_88_101", "act_89_9", "act_90_99", "act_91_41", "act_92_101", "act_93_95", "act_94_97", "act_95_101", "act_96_101", "act_97_15", "act_98_93", "act_99_101", "act_100_1", "act_100_4", "act_100_11", "act_100_13", "act_100_26", "act_100_27", "act_100_30", "act_100_32", "act_100_35", "act_100_38", "act_100_39", "act_100_44", "act_100_51", "act_100_58", "act_100_61", "act_100_62", "act_100_64", "act_100_71", "act_100_91", "act_100_94"], "init_default_solution_is_empty": false, "objective_of_initial_sol": 4979.999999999998, "my_paths": "[[100, 1, 20, 72, 40, 55, 3, 101], [100, 4, 82, 60, 84, 36, 92, 101], [100, 11, 75, 78, 2, 53, 23, 79, 101], [100, 13, 43, 37, 42, 12, 101], [100, 26, 68, 29, 50, 19, 31, 69, 101], [100, 27, 28, 77, 33, 34, 76, 101], [100, 30, 87, 6, 101], [100, 32, 80, 49, 67, 101], [100, 35, 46, 18, 7, 45, 16, 101], [100, 38, 22, 66, 54, 24, 101], [100, 39, 52, 25, 101], [100, 44, 81, 17, 83, 59, 88, 101], [100, 51, 5, 101], [100, 58, 98, 93, 95, 101], [100, 61, 10, 89, 9, 101], [100, 62, 63, 48, 47, 101], [100, 64, 70, 8, 65, 0, 101], [100, 71, 74, 21, 73, 57, 101], [100, 91, 41, 14, 86, 56, 96, 101], [100, 94, 97, 15, 85, 90, 99, 101]]"}